&BANDS
  prefix   = 'MoS2'
  outdir   = './tmp'
  filband  = 'MoS2.bands'
  lp       = .true.
  filp     = 'MoS2.dvec'
/
