&CONTROL
  calculation     = 'scf'
  prefix          = 'graphene'
  verbosity       = 'high'
  tstress         = .true.
  tprnfor         = .true.
  outdir          = '../tmp'
  pseudo_dir      = '../'
/
&SYSTEM
  ibrav           = 4
  celldm(1)       = 4.6608373919
  celldm(3)       = 8.1089553887
  nat             = 2
  ntyp            = 1
  nbnd            = 8
  ecutwfc         = 120.0
  occupations     = 'smearing'
  smearing        = 'mv'
  degauss         = 0.01
  assume_isolated = '2D'
  nosym           = .true.
  noinv           = .true.
/
&ELECTRONS
  conv_thr        = 1.0D-10
/
ATOMIC_SPECIES
  C  12.0107  C.pz-hgh.UPF
ATOMIC_POSITIONS (crystal)
  C  0.3333333333  0.6666666667  0.5000000000
  C  0.6666666667  0.3333333333  0.5000000000
K_POINTS (automatic)
  72  72  1  0  0  0
