phonons
&inputph
  prefix          = 'graphene'
  outdir          = '../tmp'
  tr2_ph          = 1.0d-18
  verbosity       = 'high'
  fildyn          = 'graphene.dyn'
  fildvscf        = 'dvscf'
  electron_phonon = 'epc'
/
  0.0  0.0  0.0
