&BANDS
  prefix   = 'graphene'
  outdir   = './tmp'
  filband  = 'graphene.bands'
  lp       = .true.
  filp     = 'graphene.dvec'
/
